
Log started (V12.10.0.0) Fri Apr  2 11:23:17 2021

Warning, line 513: Name 's262' does not exist.
Warning, line 514: Name 's61' does not exist.
Warning, line 516: Name 's96' does not exist.
Warning, line 517: Name 's232' does not exist.
Warning, line 518: Name 's128' does not exist.
Warning, line 519: Name 's12' does not exist.
Warning, line 520: Name 's50' does not exist.

Problem 'asset.lp' read.
Read time = 0.00 sec. (0.03 ticks)
New value for default parallel thread count: 1
New value for time limit in seconds: 400
Version identifier: 12.10.0.0 | 2019-11-26 | 843d4de
CPXPARAM_Threads                                 1
CPXPARAM_TimeLimit                               400
Found incumbent of value 0.000000 after 0.00 sec. (0.01 ticks)
Tried aggregator 4 times.
MIP Presolve eliminated 279 rows and 248 columns.
MIP Presolve modified 297 coefficients.
Aggregator did 41 substitutions.
Reduced MIP has 17 rows, 24 columns, and 44 nonzeros.
Reduced MIP has 17 binaries, 7 generals, 0 SOSs, and 0 indicators.
Presolve time = 0.00 sec. (0.66 ticks)
Probing fixed 0 vars, tightened 2 bounds.
Probing time = 0.00 sec. (0.01 ticks)
Tried aggregator 2 times.
MIP Presolve eliminated 17 rows and 24 columns.
MIP Presolve added 1 rows and 1 columns.
MIP Presolve modified 1 coefficients.
Aggregator did 1 substitutions.
All rows and columns eliminated.
Presolve time = 0.00 sec. (0.02 ticks)

Root node processing (before b&c):
  Real time             =    0.00 sec. (2.66 ticks)
Sequential b&c:
  Real time             =    0.00 sec. (0.00 ticks)
                          ------------
Total (root+branch&cut) =    0.00 sec. (2.66 ticks)

Solution pool: 2 solutions saved.

MIP - Integer optimal solution:  Objective =  3.0000000000e+01
Solution time =    0.00 sec.  Iterations = 0  Nodes = 0
Deterministic time = 2.67 ticks  (558.19 ticks/sec)


Incumbent solution
Variable Name           Solution Value
F                            30.000000
y255                          1.000000
y83                           1.000000
y264                          1.000000
y245                          1.000000
x156x255x1                    2.000000
x23x83x1                      1.000000
x197x264x2                    2.000000
x177x83x2                     1.000000
x177x245x2                    1.000000
x31x245x3                     1.000000
x255x0x1                      2.000000
x83x0x1                       1.000000
x83x0x2                       1.000000
x264x0x2                      2.000000
x245x0x2                      1.000000
x245x0x3                      1.000000
s197                          7.960599
s264                          9.350000
z197z264z2                    1.000000
s245                          9.420000
s177                          8.083749
s83                           9.320000
z177z83z2                     1.000000
z177z245z2                    1.000000
s200                          7.948781
s179                          8.020000
s207                          8.090000
s178                          8.130000
s73                           8.160000
s82                           8.270000
z200z264z2                    1.000000
s156                          7.850960
s255                          9.093581
z156z255z1                    1.000000
s88                           8.270000
s26                           9.350000
z156z26z1                     1.000000
s64                           9.400000
z156z64z1                     1.000000
s231                          7.903480
s31                           7.992460
s66                           9.270000
z31z245z3                     1.000000
s23                           8.076620
z23z83z1                      1.000000
s51                           8.000000
s140                          8.030000
s219                          8.040000
s184                          8.200000
s60                           8.020000
s145                          8.020000
s111                          8.030000
s54                           8.110000
s113                          8.030000
s225                          9.290000
s194                          9.200000
z88z64z1                      1.000000
All other variables in the range 1-316 are 0.
